DIMENSION: 7
EDGE_WEIGHT_TYPE: EXPLICIT
EDGE_WEIGHT_FORMAT: FULL_MATRIX
EDGE_WEIGHT_SECTION:
32767 9 59 32767 32767 48 51 
9 32767 47 81 32767 80 60 
59 47 32767 28 32767 32767 80 
32767 81 28 32767 5 32767 32767 
32767 32767 32767 5 32767 64 32767 
48 80 32767 32767 64 32767 78 
51 60 80 32767 32767 78 32767 
EOF